words_hard_train/2983.qaiger
aag 94 16 0 1 78
2
4
8
10
16
18
24
32
38
40
44
48
52
56
60
64
188
6 3 5
12 9 11
14 6 12
20 17 19
22 14 20
26 23 24
28 16 19
30 28 14
34 30 33
36 26 34
42 39 41
46 42 45
50 46 49
54 50 53
58 54 57
62 58 61
66 62 65
68 63 64
70 67 69
72 20 3
74 72 9
76 74 11
78 77 4
80 79 23
82 55 56
84 83 59
86 80 85
88 59 60
90 89 63
92 22 33
94 23 32
96 93 95
98 91 96
100 87 99
102 73 8
104 103 75
106 47 48
108 107 51
110 104 109
112 38 40
114 113 43
116 115 18
118 117 29
120 21 2
122 121 73
124 43 44
126 125 47
128 122 127
130 118 129
132 123 126
134 131 133
136 105 108
138 134 137
140 111 139
142 75 10
144 143 77
146 51 52
148 147 55
150 144 149
152 140 151
154 81 84
156 153 155
158 145 148
160 156 159
162 100 161
164 90 97
166 163 165
168 71 167
170 36 169
172 70 166
174 173 37
176 171 175
178 92 24
180 35 24
182 181 93
184 179 183
186 184 169
188 177 187
i0 2 y2[2]
i1 2 y2[5]
i2 2 y2[3]
i3 2 y2[4]
i4 2 y2[0]
i5 2 y2[1]
i6 2 y2[7]
i7 2 y2[6]
i8 1 x2[0]
i9 1 x2[1]
i10 1 x2[2]
i11 1 x2[3]
i12 1 x2[4]
i13 1 x2[5]
i14 1 x2[6]
i15 1 x2[7]
o0 bv[0]
c
simplified
  >=
    or
      unary minus
        1 x2
      1
    subtract
      1
      2 y2
