words_hard_train/2983.qaiger.qdimacs
p cnf 94 235
a 32 19 20 22 24 26 28 30 0
e 1 2 3 4 5 6 7 8 9 10 11 12 13 14 15 16 17 18 21 23 25 27 29 31 33 34 35 36 37 38 39 40 41 42 43 44 45 46 47 48 49 50 51 52 53 54 55 56 57 58 59 60 61 62 63 64 65 66 67 68 69 70 71 72 73 74 75 76 77 78 79 80 81 82 83 84 85 86 87 88 89 90 91 92 93 94 0
1 2 3 0
-1 -3 0
-2 -3 0
4 5 6 0
-4 -6 0
-5 -6 0
-3 -6 7 0
3 -7 0
6 -7 0
8 9 10 0
-8 -10 0
-9 -10 0
-7 -10 11 0
7 -11 0
10 -11 0
11 -12 13 0
-11 -13 0
12 -13 0
-8 9 14 0
8 -14 0
-9 -14 0
-14 -7 15 0
14 -15 0
7 -15 0
-15 16 17 0
15 -17 0
-16 -17 0
-13 -17 18 0
13 -18 0
17 -18 0
19 20 21 0
-19 -21 0
-20 -21 0
-21 22 23 0
21 -23 0
-22 -23 0
-23 24 25 0
23 -25 0
-24 -25 0
-25 26 27 0
25 -27 0
-26 -27 0
-27 28 29 0
27 -29 0
-28 -29 0
-29 30 31 0
29 -31 0
-30 -31 0
-31 32 33 0
31 -33 0
-32 -33 0
31 -32 34 0
-31 -34 0
32 -34 0
33 34 35 0
-33 -35 0
-34 -35 0
-10 1 36 0
10 -36 0
-1 -36 0
-36 4 37 0
36 -37 0
-4 -37 0
-37 5 38 0
37 -38 0
-5 -38 0
38 -2 39 0
-38 -39 0
2 -39 0
39 11 40 0
-39 -40 0
-11 -40 0
27 -28 41 0
-27 -41 0
28 -41 0
41 29 42 0
-41 -42 0
-29 -42 0
-40 42 43 0
40 -43 0
-42 -43 0
29 -30 44 0
-29 -44 0
30 -44 0
44 31 45 0
-44 -45 0
-31 -45 0
-11 16 46 0
11 -46 0
-16 -46 0
11 -16 47 0
-11 -47 0
16 -47 0
46 47 48 0
-46 -48 0
-47 -48 0
45 -48 49 0
-45 -49 0
48 -49 0
43 49 50 0
-43 -50 0
-49 -50 0
36 -4 51 0
-36 -51 0
4 -51 0
51 37 52 0
-51 -52 0
-37 -52 0
23 -24 53 0
-23 -53 0
24 -53 0
53 25 54 0
-53 -54 0
-25 -54 0
-52 54 55 0
52 -55 0
-54 -55 0
-19 -20 56 0
19 -56 0
20 -56 0
56 21 57 0
-56 -57 0
-21 -57 0
57 -9 58 0
-57 -58 0
9 -58 0
58 14 59 0
-58 -59 0
-14 -59 0
10 -1 60 0
-10 -60 0
1 -60 0
60 36 61 0
-60 -61 0
-36 -61 0
21 -22 62 0
-21 -62 0
22 -62 0
62 23 63 0
-62 -63 0
-23 -63 0
-61 63 64 0
61 -64 0
-63 -64 0
-59 64 65 0
59 -65 0
-64 -65 0
61 -63 66 0
-61 -66 0
63 -66 0
65 66 67 0
-65 -67 0
-66 -67 0
52 -54 68 0
-52 -68 0
54 -68 0
-67 68 69 0
67 -69 0
-68 -69 0
55 69 70 0
-55 -70 0
-69 -70 0
37 -5 71 0
-37 -71 0
5 -71 0
71 38 72 0
-71 -72 0
-38 -72 0
25 -26 73 0
-25 -73 0
26 -73 0
73 27 74 0
-73 -74 0
-27 -74 0
-72 74 75 0
72 -75 0
-74 -75 0
-70 75 76 0
70 -76 0
-75 -76 0
40 -42 77 0
-40 -77 0
42 -77 0
76 77 78 0
-76 -78 0
-77 -78 0
72 -74 79 0
-72 -79 0
74 -79 0
-78 79 80 0
78 -80 0
-79 -80 0
-50 80 81 0
50 -81 0
-80 -81 0
-45 48 82 0
45 -82 0
-48 -82 0
81 82 83 0
-81 -83 0
-82 -83 0
35 83 84 0
-35 -84 0
-83 -84 0
-18 84 85 0
18 -85 0
-84 -85 0
-35 -83 86 0
35 -86 0
83 -86 0
86 18 87 0
-86 -87 0
-18 -87 0
85 87 88 0
-85 -88 0
-87 -88 0
-46 -12 89 0
46 -89 0
12 -89 0
17 -12 90 0
-17 -90 0
12 -90 0
90 46 91 0
-90 -91 0
-46 -91 0
89 91 92 0
-89 -92 0
-91 -92 0
-92 84 93 0
92 -93 0
-84 -93 0
88 93 94 0
-88 -94 0
-93 -94 0
94 0
